# Solution for model GasLib-40
# Objective value = 3.9309672936668349e+01
loadshed[innode_1] 0
loadshed[innode_2] 0
loadshed[innode_3] 0
loadshed[innode_4] 0
loadshed[innode_5] 0
loadshed[innode_6] 0
loadshed[innode_7] 0
loadshed[innode_8] 0
loadshed[source_1] -1.6618904976948468e-01
loadshed[source_2] 1.9569951720901935e-01
loadshed[source_3] 2.1914285577050296e-01
loadshed[sink_1] 0
loadshed[sink_2] 0
loadshed[sink_3] 0
loadshed[sink_4] 0
loadshed[sink_5] 0
loadshed[sink_6] 0
loadshed[sink_7] 0
loadshed[sink_8] 0
loadshed[sink_9] 0
loadshed[sink_10] 0
loadshed[sink_11] 0
loadshed[sink_12] 1
loadshed[sink_13] 0
loadshed[sink_14] 0
loadshed[sink_15] 0
loadshed[sink_16] 0
loadshed[sink_17] 0
loadshed[sink_18] 0
loadshed[sink_19] 0
loadshed[sink_20] 0
loadshed[sink_21] 1
loadshed[sink_22] 0
loadshed[sink_23] 0
loadshed[sink_24] 4.0364879103194962e-01
loadshed[sink_25] 0
loadshed[sink_26] 0
loadshed[sink_27] 0
loadshed[sink_28] 0
loadshed[sink_29] 0
flow[source_1,sink_3] 1.8436315081946054e+02
flow[innode_1,sink_16] 1.6354166666666970e+01
flow[innode_6,sink_13] -8.9667561693361932e+00
flow[sink_13,sink_14] -2.5320922836002861e+01
flow[sink_14,sink_10] -4.1675089502669529e+01
flow[sink_25,sink_26] 1.3362964488448367e+02
flow[sink_26,sink_9] 3.2708333333334551e+01
flow[sink_9,sink_18] 1.6354166666667879e+01
flow[sink_26,sink_4] 8.4567144884482445e+01
flow[sink_4,sink_20] -3.9664848845516190e+01
flow[sink_18,sink_6] 0
flow[sink_25,innode_8] -1.5165481748612419e+02
flow[sink_6,sink_7] -4.9062500000000313e+01
flow[sink_6,sink_22] 3.2708333333333641e+01
flow[sink_7,sink_24] 9.75282706333166
flow[sink_22,sink_1] 1.6354166666666970e+01
flow[sink_24,sink_21] 0
flow[sink_21,sink_12] 0
flow[sink_7,sink_5] -7.5169493729998635e+01
flow[sink_5,sink_17] -91.5236603966653
flow[sink_17,sink_4] -1.0787782706333198e+02
flow[sink_17,sink_8] 0
flow[sink_3,sink_23] 16.3541666666697
flow[sink_8,sink_20] -1.6354166666668334e+01
flow[sink_25,sink_20] 7.2373182178851152e+01
flow[sink_25,sink_15] -6.1735420074542006e+01
flow[sink_15,sink_29] -9.4443753407892927e+01
flow[sink_29,sink_28] 1.6354166666667879e+01
flow[sink_29,sink_2] 0
flow[sink_2,sink_15] -1.6354166666684250e+01
flow[sink_29,innode_7] -1.2715208674122691e+02
flow[innode_4,sink_19] 4.8029265690013204e+01
flow[sink_19,innode_3] 4.4279560674144427e+01
flow[innode_4,innode_5] 7.5416657145990271e+01
flow[sink_27,innode_5] -7.5416657145990271e+01
flow[sink_27,sink_19] 5.9062490479323607e+01
flow[sink_10,sink_11] 3.2708333333333641e+01
flow[sink_10,innode_2] -4.6458028828525407e+01
flow[sink_10,innode_3] -4.4279560674144427e+01
flow[innode_6,sink_25] 8.9667561693361932e+00
flow[sink_11,innode_1] 1.6354166666666970e+01
flow[sink_19,innode_2] 4.6458028828525407e+01
flow[source_3,innode_4] 1.2344592283600348e+02
flow[source_2,innode_7] 1.2715208674122691e+02
flow[sink_3,innode_8] 1.5165481748612419e+02
pressure[innode_1] 7.6460262058496753e+01
pressure[innode_2] 7.9067462067631084e+01
pressure[innode_3] 7.8969409994634418e+01
pressure[innode_4] 81.01325
pressure[innode_5] 8.0961374446482338e+01
pressure[innode_6] 7.4546043973976111e+01
pressure[innode_7] 81.01325
pressure[innode_8] 8.0396994416086940e+01
pressure[source_1] 81.01325
pressure[source_2] 81.01325
pressure[source_3] 81.01325
pressure[sink_1] 9.4049215051065254e+00
pressure[sink_2] 7.4792128167912480e+01
pressure[sink_3] 8.0396994416086940e+01
pressure[sink_4] 5.4382500890945650e+01
pressure[sink_5] 4.3441914909191212e+01
pressure[sink_6] 1.1505999115493898e+01
pressure[sink_7] 1.2179510293194030e+01
pressure[sink_8] 5.6152843210145782e+01
pressure[sink_9] 6.3176908393215811e+01
pressure[sink_10] 76.6119633661003
pressure[sink_11] 7.6460262058496753e+01
pressure[sink_12] 1.01325
pressure[sink_13] 7.4595476202253508e+01
pressure[sink_14] 7.4640790150534229e+01
pressure[sink_15] 7.4845520917678925e+01
pressure[sink_16] 7.5438612223679073e+01
pressure[sink_17] 5.0259766056724175e+01
pressure[sink_18] 6.2585165899416111e+01
pressure[sink_19] 7.9067462067631084e+01
pressure[sink_20] 5.7292498633734070e+01
pressure[sink_21] 1.01325
pressure[sink_22] 1.0468690647461536e+01
pressure[sink_23] 8.0232276404427154e+01
pressure[sink_24] 1.01325
pressure[sink_25] 7.4546043973976111e+01
pressure[sink_26] 6.5134586561100420e+01
pressure[sink_27] 8.0335555547169008e+01
pressure[sink_28] 7.7317147523782523e+01
pressure[sink_29] 77.6124297973997
interdiction[source_1,sink_3] 0
interdiction[innode_1,sink_16] 0
interdiction[innode_6,sink_13] 0
interdiction[sink_13,sink_14] 0
interdiction[sink_14,sink_10] 0
interdiction[sink_25,sink_26] 0
interdiction[sink_26,sink_9] 0
interdiction[sink_9,sink_18] 0
interdiction[sink_26,sink_4] 0
interdiction[sink_4,sink_20] 0
interdiction[sink_18,sink_6] 1
interdiction[sink_25,innode_8] 0
interdiction[sink_6,sink_7] 0
interdiction[sink_6,sink_22] 0
interdiction[sink_7,sink_24] 0
interdiction[sink_22,sink_1] 0
interdiction[sink_24,sink_21] 0
interdiction[sink_21,sink_12] 0
interdiction[sink_7,sink_5] 0
interdiction[sink_5,sink_17] 0
interdiction[sink_17,sink_4] 0
interdiction[sink_17,sink_8] 1
interdiction[sink_3,sink_23] 0
interdiction[sink_8,sink_20] 0
interdiction[sink_25,sink_20] 0
interdiction[sink_25,sink_15] 0
interdiction[sink_15,sink_29] 0
interdiction[sink_29,sink_28] 0
interdiction[sink_29,sink_2] 1
interdiction[sink_2,sink_15] 0
interdiction[sink_29,innode_7] 0
interdiction[innode_4,sink_19] 0
interdiction[sink_19,innode_3] 0
interdiction[innode_4,innode_5] 0
interdiction[sink_27,innode_5] 0
interdiction[sink_27,sink_19] 0
interdiction[sink_10,sink_11] 0
interdiction[sink_10,innode_2] 0
interdiction[sink_10,innode_3] 0
interdiction[innode_6,sink_25] 0
interdiction[sink_11,innode_1] 0
interdiction[sink_19,innode_2] 0
interdiction[source_3,innode_4] 0
interdiction[source_2,innode_7] 0
interdiction[sink_3,innode_8] 0
WCcheckFlow[source_1,sink_3] 39
WCcheckFlow[innode_1,sink_16] 1
WCcheckFlow[innode_6,sink_13] 13
WCcheckFlow[sink_13,sink_14] 12
WCcheckFlow[sink_14,sink_10] 11
WCcheckFlow[sink_25,sink_26] 15
WCcheckFlow[sink_26,sink_9] 2
WCcheckFlow[sink_9,sink_18] 1
WCcheckFlow[sink_26,sink_4] 12
WCcheckFlow[sink_4,sink_20] 2
WCcheckFlow[sink_18,sink_6] 0
WCcheckFlow[sink_25,innode_8] -36
WCcheckFlow[sink_6,sink_7] -3
WCcheckFlow[sink_6,sink_22] 2
WCcheckFlow[sink_7,sink_24] 3
WCcheckFlow[sink_22,sink_1] 1
WCcheckFlow[sink_24,sink_21] 2
WCcheckFlow[sink_21,sink_12] 1
WCcheckFlow[sink_7,sink_5] -7
WCcheckFlow[sink_5,sink_17] -8
WCcheckFlow[sink_17,sink_4] -9
WCcheckFlow[sink_17,sink_8] 0
WCcheckFlow[sink_3,sink_23] 1
WCcheckFlow[sink_8,sink_20] -1
WCcheckFlow[sink_25,sink_20] 0
WCcheckFlow[sink_25,sink_15] 6
WCcheckFlow[sink_15,sink_29] 4
WCcheckFlow[sink_29,sink_28] 1
WCcheckFlow[sink_29,sink_2] 0
WCcheckFlow[sink_2,sink_15] -1
WCcheckFlow[sink_29,innode_7] 2
WCcheckFlow[innode_4,sink_19] -4
WCcheckFlow[sink_19,innode_3] -5
WCcheckFlow[innode_4,innode_5] 2
WCcheckFlow[sink_27,innode_5] -1
WCcheckFlow[sink_27,sink_19] 0
WCcheckFlow[sink_10,sink_11] 3
WCcheckFlow[sink_10,innode_2] 1
WCcheckFlow[sink_10,innode_3] 6
WCcheckFlow[innode_6,sink_25] -14
WCcheckFlow[sink_11,innode_1] 2
WCcheckFlow[sink_19,innode_2] 0
WCcheckFlow[source_3,innode_4] -1
WCcheckFlow[source_2,innode_7] -1
WCcheckFlow[sink_3,innode_8] 37
